p cnf 12 50 
-9 -8 6 0
-3 -4 -10 0
-5 -6 11 0
-8 -3 4 0
9 2 -10 0
-10 -7 -4 0
-8 -1 9 0
-12 -8 2 0
-12 -1 -6 0
-3 -12 9 0
11 6 2 0
8 -5 -7 0
2 6 -7 0
6 -8 -2 0
6 9 10 0
-11 10 -4 0
-12 10 2 0
1 -2 -5 0
9 1 4 0
8 -4 3 0
-8 -12 -4 0
3 -10 -6 0
-8 -12 -11 0
-7 -1 -4 0
-5 12 10 0
11 6 4 0
-2 4 7 0
3 6 1 0
-9 -12 1 0
12 -10 -8 0
-8 -2 -10 0
-12 -3 -10 0
-7 8 -2 0
-9 11 4 0
2 -11 1 0
-11 -1 -2 0
8 11 -6 0
4 -1 6 0
-3 4 8 0
-11 1 -10 0
3 12 -2 0
-1 7 3 0
-2 1 -3 0
7 -3 -11 0
1 -8 6 0
-3 6 9 0
9 5 8 0
1 7 -9 0
-4 3 -10 0
9 7 -3 0
